% demand
num_movements = 37;
loading_factor = [1900, 1150, 1000, 1450, 1400, 1350, 1700, 850, 1550, 1700, 1000, 1750, 1850, 1850, 850, 1450, 1250, 1800, 1350, 1750, 1500, 1950, 1400, 1500, 1850, 1300, 1900, 1300, 1700, 1050, 1600, 1750, 1700, 1750, 1500, 1700, 1350];
pickup_time = [0, 0, 0, 0, 1, 1, 1, 1, 1, 2, 2, 2, 2, 3, 3, 4, 4, 4, 5, 5, 5, 5, 5, 7, 7, 8, 8, 9, 9, 9, 9, 9, 10, 10, 10, 10, 11];
delivery_time = [1, 1, 1, 1, 3, 2, 4, 2, 3, 3, 3, 3, 3, 4, 4, 5, 6, 6, 6, 8, 7, 6, 8, 9, 8, 9, 10, 12, 12, 10, 10, 10, 13, 13, 13, 13, 13];

% transporter definition
total_capacity = 11000;
num_decks = 4;
capacity = [3000, 3000, 1000, 4000];

% ways out of decks
num_ways_out = 2;
paths_out = array3d(decks, ways_out, decks, [
% ways out of deck d1
2, 4, 0, 0, 3, 4, 0, 0, 

% ways out of deck d2
4, 0, 0, 0, 0, 0, 0, 0,	

% ways out of deck d3
4, 0, 0, 0, 0, 0, 0, 0,	

% ways out of deck d4
0, 0, 0, 0,	0, 0, 0, 0,	

]);

